NAME : tsp_395_sol.txt
COMMENT : OR-Tools Guided Local Search
TYPE : TOUR
DIMENSION : 50
COST : 5613
STATUS : ROUTING_SUCCESS
GAP : 0.00% (Reference Solution)
TOUR_SECTION
1
18
37
17
25
34
20
36
43
28
5
50
16
15
24
30
10
2
41
8
4
46
19
12
6
27
32
26
31
13
9
40
23
21
47
49
39
38
22
7
42
29
48
44
14
11
45
35
3
33
-1
